solvers/examples/dietd.nl
g3 0 0 0
 24 8 1 0
 0 0
 0 0
 0 0
 0 0 0 1
 0 0
 51 16
 0 0
 0 0 0 0 0
C0
n0
C1
n0
C2
n0
C3
n0
C4
n0
C5
n0
C6
n0
C7
n0
O0 1
n0
r
4 3.19
4 2.59
4 2.29
4 2.89
4 1.89
4 1.99
4 1.99
4 2.49
b
2 0
2 0
2 0
2 0
2 0
2 0
2 0
2 0
2 0
2 0
2 0
2 0
2 0
2 0
2 0
2 0
2 0
2 0
2 0
2 0
2 0
2 0
2 0
2 0
k23
8
16
24
31
32
33
34
35
36
37
38
39
40
41
42
43
44
45
46
47
48
49
50
J0 10
0 60
1 10
2 15
3 20
4 -60
5 -10
6 -15
7 -20
8 1
9 -1
J1 5
0 8
1 20
2 20
10 1
11 -1
J2 6
0 8
1 15
2 10
3 10
12 1
13 -1
J3 6
0 40
1 35
2 10
3 40
14 1
15 -1
J4 6
0 15
1 15
2 15
3 35
16 1
17 -1
J5 6
0 70
1 15
2 15
3 30
18 1
19 -1
J6 6
0 25
1 25
2 15
3 50
20 1
21 -1
J7 6
0 60
1 15
2 10
3 20
22 1
23 -1
G0 16
0 700
1 700
2 700
3 700
4 -10000
5 -10000
6 -10000
7 -10000
9 -100
11 -100
13 -100
15 -100
17 -100
19 -100
21 -100
23 -100
