solvers/examples/dietd.sol
MINOS 5.5: optimal solution found.
5 iterations, objective 88.19999999999997

Options
3
0
0
0
8
8
24
24
0
0
0
0
46.66666666666666
1.3147937795438523e-15
0
0
0.0018181818181818162
0
0.12418181818181816
0
0
0
0
0
1.2181818181818185
0
0.09181818181818233
0
1.0336363636363637
0
1.5754545454545454
0
0
0
0
0
0.08181818181818229
0
1.1390909090909094
0
objno 0 0
suffix 0 24 8 0 0
sstatus
0 1
1 3
2 1
3 3
4 3
5 3
6 3
7 3
8 1
9 3
10 1
11 3
12 1
13 3
14 1
15 3
16 3
17 3
18 3
19 3
20 1
21 3
22 1
23 3
suffix 1 8 8 0 0
sstatus
0 5
1 5
2 5
3 5
4 5
5 5
6 5
7 5
